0 273 
1 280 
2 283 
3 283 
4 281 
5 287 
6 288 
7 296 
8 297 
9 289 
10 281 
11 281 
12 275 
13 273 
14 272 
15 265 
16 268 
17 269 
18 265 
19 267 
20 263 
21 264 
22 261 
23 261 
24 258 
25 258 
26 256 
27 260 
28 254 
29 253 
30 251 
31 249 
32 249 
33 244 
34 246 
35 245 
36 242 
37 243 
38 242 
39 239 
40 232 
41 229 
42 229 
43 226 
44 223 
45 227 
46 219 
47 223 
48 226 
49 228 
50 227 
51 219 
52 219 
53 216 
54 217 
55 219 
56 210 
57 213 
58 213 
59 208 
60 208 
61 208 
62 208 
63 202 
64 201 
65 200 
66 194 
67 189 
68 190 
69 195 
70 191 
71 190 
72 185 
73 178 
74 175 
75 180 
76 180 
77 175 
78 169 
79 170 
80 166 
81 168 
82 171 
83 172 
84 170 
85 166 
86 162 
87 156 
88 155 
89 152 
90 160 
91 159 
92 154 
93 149 
94 149 
95 149 
96 147 
97 147 
98 147 
99 146 
100 141 
101 148 
102 147 
103 141 
104 144 
105 145 
106 138 
107 133 
108 132 
109 138 
110 134 
111 133 
112 137 
113 132 
114 132 
115 122 
116 120 
117 116 
118 115 
119 112 
120 111 
121 111 
122 113 
123 113 
124 111 
125 106 
126 105 
127 104 
128 102 
129 102 
130 99 
131 95 
132 94 
133 90 
134 93 
135 93 
136 90 
137 90 
138 84 
139 84 
140 79 
141 76 
142 75 
143 71 
144 68 
145 70 
146 66 
147 63 
148 65 
149 64 
150 64 
151 65 
152 63 
153 60 
154 60 
155 56 
156 52 
157 56 
158 54 
159 51 
160 43 
161 45 
162 43 
163 39 
164 40 
165 39 
166 36 
167 34 
168 35 
169 31 
170 29 
171 26 
172 21 
173 22 
174 22 
175 21 
176 17 
177 19 
178 16 
179 14 
180 12 
181 11 
182 14 
183 10 
184 10 
185 6 
186 3 
187 2 
188 2 
189 1 
190 0 
191 0 

